2 10
117 113 
0 24 14 42 32 87 50 1
1 86 76 63 53 51 99 1
2 100 90 35 25 38 8 1
3 71 61 87 77 94 59 2
4 38 28 109 99 51 20 2
5 100 90 101 91 100 34 1
6 99 89 54 44 24 58 1
7 72 62 57 47 100 80 2
8 72 62 23 13 52 85 2
9 26 16 94 84 75 19 2
